(set-logic QF_LRA)
(declare-fun T1 () Real )
(declare-fun T2 () Real )
(declare-fun T3 () Real )
(declare-fun T4 () Real )
(declare-fun T5 () Real )
(declare-fun T6 () Real )
(declare-fun T7 () Real )
(declare-fun T8 () Real )
(declare-fun Z () Real )
(declare-fun k () Real )
(assert (let
(( $goal (>= Z k) ))
(let
((
$phi ( and 
(or ( <= ( + T1 40 ) T2 ) ( <= ( + T2 53 ) T1 ) )
(or ( <= ( + T1 134 )  ( + T2 53 ) ) ( <= ( + T2 144 )( + T1 40 ) ) )
(or ( <= ( + T1 187 )  ( + T2 144 ) ) ( <= ( + T2 148 )( + T1 134 ) ) )
(or ( <= ( + T1 247 )  ( + T2 148 ) ) ( <= ( + T2 176 )( + T1 187 ) ) )
(or ( <= ( + T1 297 )  ( + T2 176 ) ) ( <= ( + T2 256 )( + T1 247 ) ) )
(or ( <= ( + T1 393 )  ( + T2 256 ) ) ( <= ( + T2 264 )( + T1 297 ) ) )
(or ( <= ( + T1 435 )  ( + T2 264 ) ) ( <= ( + T2 336 )( + T1 393 ) ) )
(or ( <= ( + T1 475 )  ( + T2 336 ) ) ( <= ( + T2 430 )( + T1 435 ) ) )
(or ( <= ( + T1 557 )  ( + T2 430 ) ) ( <= ( + T2 512 )( + T1 475 ) ) )
(or ( <= ( + T1 642 )  ( + T2 512 ) ) ( <= ( + T2 560 )( + T1 557 ) ) )
(or ( <= ( + T1 40 ) T3 ) ( <= ( + T3 89 ) T1 ) )
(or ( <= ( + T1 134 )  ( + T3 89 ) ) ( <= ( + T3 188 )( + T1 40 ) ) )
(or ( <= ( + T1 187 )  ( + T3 188 ) ) ( <= ( + T3 265 )( + T1 134 ) ) )
(or ( <= ( + T1 247 )  ( + T3 265 ) ) ( <= ( + T3 303 )( + T1 187 ) ) )
(or ( <= ( + T1 297 )  ( + T3 303 ) ) ( <= ( + T3 348 )( + T1 247 ) ) )
(or ( <= ( + T1 393 )  ( + T3 348 ) ) ( <= ( + T3 354 )( + T1 297 ) ) )
(or ( <= ( + T1 435 )  ( + T3 354 ) ) ( <= ( + T3 440 )( + T1 393 ) ) )
(or ( <= ( + T1 475 )  ( + T3 440 ) ) ( <= ( + T3 444 )( + T1 435 ) ) )
(or ( <= ( + T1 557 )  ( + T3 444 ) ) ( <= ( + T3 510 )( + T1 475 ) ) )
(or ( <= ( + T1 642 )  ( + T3 510 ) ) ( <= ( + T3 530 )( + T1 557 ) ) )
(or ( <= ( + T1 40 ) T4 ) ( <= ( + T4 74 ) T1 ) )
(or ( <= ( + T1 134 )  ( + T4 74 ) ) ( <= ( + T4 79 )( + T1 40 ) ) )
(or ( <= ( + T1 187 )  ( + T4 79 ) ) ( <= ( + T4 144 )( + T1 134 ) ) )
(or ( <= ( + T1 247 )  ( + T4 144 ) ) ( <= ( + T4 171 )( + T1 187 ) ) )
(or ( <= ( + T1 297 )  ( + T4 171 ) ) ( <= ( + T4 188 )( + T1 247 ) ) )
(or ( <= ( + T1 393 )  ( + T4 188 ) ) ( <= ( + T4 202 )( + T1 297 ) ) )
(or ( <= ( + T1 435 )  ( + T4 202 ) ) ( <= ( + T4 276 )( + T1 393 ) ) )
(or ( <= ( + T1 475 )  ( + T4 276 ) ) ( <= ( + T4 334 )( + T1 435 ) ) )
(or ( <= ( + T1 557 )  ( + T4 334 ) ) ( <= ( + T4 388 )( + T1 475 ) ) )
(or ( <= ( + T1 642 )  ( + T4 388 ) ) ( <= ( + T4 395 )( + T1 557 ) ) )
(or ( <= ( + T1 40 ) T5 ) ( <= ( + T5 42 ) T1 ) )
(or ( <= ( + T1 134 )  ( + T5 42 ) ) ( <= ( + T5 48 )( + T1 40 ) ) )
(or ( <= ( + T1 187 )  ( + T5 48 ) ) ( <= ( + T5 97 )( + T1 134 ) ) )
(or ( <= ( + T1 247 )  ( + T5 97 ) ) ( <= ( + T5 142 )( + T1 187 ) ) )
(or ( <= ( + T1 297 )  ( + T5 142 ) ) ( <= ( + T5 227 )( + T1 247 ) ) )
(or ( <= ( + T1 393 )  ( + T5 227 ) ) ( <= ( + T5 255 )( + T1 297 ) ) )
(or ( <= ( + T1 435 )  ( + T5 255 ) ) ( <= ( + T5 259 )( + T1 393 ) ) )
(or ( <= ( + T1 475 )  ( + T5 259 ) ) ( <= ( + T5 316 )( + T1 435 ) ) )
(or ( <= ( + T1 557 )  ( + T5 316 ) ) ( <= ( + T5 390 )( + T1 475 ) ) )
(or ( <= ( + T1 642 )  ( + T5 390 ) ) ( <= ( + T5 475 )( + T1 557 ) ) )
(or ( <= ( + T1 40 ) T6 ) ( <= ( + T6 56 ) T1 ) )
(or ( <= ( + T1 134 )  ( + T6 56 ) ) ( <= ( + T6 118 )( + T1 40 ) ) )
(or ( <= ( + T1 187 )  ( + T6 118 ) ) ( <= ( + T6 202 )( + T1 134 ) ) )
(or ( <= ( + T1 247 )  ( + T6 202 ) ) ( <= ( + T6 235 )( + T1 187 ) ) )
(or ( <= ( + T1 297 )  ( + T6 235 ) ) ( <= ( + T6 334 )( + T1 247 ) ) )
(or ( <= ( + T1 393 )  ( + T6 334 ) ) ( <= ( + T6 414 )( + T1 297 ) ) )
(or ( <= ( + T1 435 )  ( + T6 414 ) ) ( <= ( + T6 504 )( + T1 393 ) ) )
(or ( <= ( + T1 475 )  ( + T6 504 ) ) ( <= ( + T6 540 )( + T1 435 ) ) )
(or ( <= ( + T1 557 )  ( + T6 540 ) ) ( <= ( + T6 623 )( + T1 475 ) ) )
(or ( <= ( + T1 642 )  ( + T6 623 ) ) ( <= ( + T6 679 )( + T1 557 ) ) )
(or ( <= ( + T1 40 ) T7 ) ( <= ( + T7 56 ) T1 ) )
(or ( <= ( + T1 134 )  ( + T7 56 ) ) ( <= ( + T7 112 )( + T1 40 ) ) )
(or ( <= ( + T1 187 )  ( + T7 112 ) ) ( <= ( + T7 124 )( + T1 134 ) ) )
(or ( <= ( + T1 247 )  ( + T7 124 ) ) ( <= ( + T7 196 )( + T1 187 ) ) )
(or ( <= ( + T1 297 )  ( + T7 196 ) ) ( <= ( + T7 230 )( + T1 247 ) ) )
(or ( <= ( + T1 393 )  ( + T7 230 ) ) ( <= ( + T7 258 )( + T1 297 ) ) )
(or ( <= ( + T1 435 )  ( + T7 258 ) ) ( <= ( + T7 344 )( + T1 393 ) ) )
(or ( <= ( + T1 475 )  ( + T7 344 ) ) ( <= ( + T7 403 )( + T1 435 ) ) )
(or ( <= ( + T1 557 )  ( + T7 403 ) ) ( <= ( + T7 440 )( + T1 475 ) ) )
(or ( <= ( + T1 642 )  ( + T7 440 ) ) ( <= ( + T7 531 )( + T1 557 ) ) )
(or ( <= ( + T1 40 ) T8 ) ( <= ( + T8 66 ) T1 ) )
(or ( <= ( + T1 134 )  ( + T8 66 ) ) ( <= ( + T8 97 )( + T1 40 ) ) )
(or ( <= ( + T1 187 )  ( + T8 97 ) ) ( <= ( + T8 145 )( + T1 134 ) ) )
(or ( <= ( + T1 247 )  ( + T8 145 ) ) ( <= ( + T8 159 )( + T1 187 ) ) )
(or ( <= ( + T1 297 )  ( + T8 159 ) ) ( <= ( + T8 186 )( + T1 247 ) ) )
(or ( <= ( + T1 393 )  ( + T8 186 ) ) ( <= ( + T8 219 )( + T1 297 ) ) )
(or ( <= ( + T1 435 )  ( + T8 219 ) ) ( <= ( + T8 261 )( + T1 393 ) ) )
(or ( <= ( + T1 475 )  ( + T8 261 ) ) ( <= ( + T8 292 )( + T1 435 ) ) )
(or ( <= ( + T1 557 )  ( + T8 292 ) ) ( <= ( + T8 333 )( + T1 475 ) ) )
(or ( <= ( + T1 642 )  ( + T8 333 ) ) ( <= ( + T8 348 )( + T1 557 ) ) )
(or ( <= ( + T2 53 ) T3 ) ( <= ( + T3 89 ) T2 ) )
(or ( <= ( + T2 144 )  ( + T3 89 ) ) ( <= ( + T3 188 )( + T2 53 ) ) )
(or ( <= ( + T2 148 )  ( + T3 188 ) ) ( <= ( + T3 265 )( + T2 144 ) ) )
(or ( <= ( + T2 176 )  ( + T3 265 ) ) ( <= ( + T3 303 )( + T2 148 ) ) )
(or ( <= ( + T2 256 )  ( + T3 303 ) ) ( <= ( + T3 348 )( + T2 176 ) ) )
(or ( <= ( + T2 264 )  ( + T3 348 ) ) ( <= ( + T3 354 )( + T2 256 ) ) )
(or ( <= ( + T2 336 )  ( + T3 354 ) ) ( <= ( + T3 440 )( + T2 264 ) ) )
(or ( <= ( + T2 430 )  ( + T3 440 ) ) ( <= ( + T3 444 )( + T2 336 ) ) )
(or ( <= ( + T2 512 )  ( + T3 444 ) ) ( <= ( + T3 510 )( + T2 430 ) ) )
(or ( <= ( + T2 560 )  ( + T3 510 ) ) ( <= ( + T3 530 )( + T2 512 ) ) )
(or ( <= ( + T2 53 ) T4 ) ( <= ( + T4 74 ) T2 ) )
(or ( <= ( + T2 144 )  ( + T4 74 ) ) ( <= ( + T4 79 )( + T2 53 ) ) )
(or ( <= ( + T2 148 )  ( + T4 79 ) ) ( <= ( + T4 144 )( + T2 144 ) ) )
(or ( <= ( + T2 176 )  ( + T4 144 ) ) ( <= ( + T4 171 )( + T2 148 ) ) )
(or ( <= ( + T2 256 )  ( + T4 171 ) ) ( <= ( + T4 188 )( + T2 176 ) ) )
(or ( <= ( + T2 264 )  ( + T4 188 ) ) ( <= ( + T4 202 )( + T2 256 ) ) )
(or ( <= ( + T2 336 )  ( + T4 202 ) ) ( <= ( + T4 276 )( + T2 264 ) ) )
(or ( <= ( + T2 430 )  ( + T4 276 ) ) ( <= ( + T4 334 )( + T2 336 ) ) )
(or ( <= ( + T2 512 )  ( + T4 334 ) ) ( <= ( + T4 388 )( + T2 430 ) ) )
(or ( <= ( + T2 560 )  ( + T4 388 ) ) ( <= ( + T4 395 )( + T2 512 ) ) )
(or ( <= ( + T2 53 ) T5 ) ( <= ( + T5 42 ) T2 ) )
(or ( <= ( + T2 144 )  ( + T5 42 ) ) ( <= ( + T5 48 )( + T2 53 ) ) )
(or ( <= ( + T2 148 )  ( + T5 48 ) ) ( <= ( + T5 97 )( + T2 144 ) ) )
(or ( <= ( + T2 176 )  ( + T5 97 ) ) ( <= ( + T5 142 )( + T2 148 ) ) )
(or ( <= ( + T2 256 )  ( + T5 142 ) ) ( <= ( + T5 227 )( + T2 176 ) ) )
(or ( <= ( + T2 264 )  ( + T5 227 ) ) ( <= ( + T5 255 )( + T2 256 ) ) )
(or ( <= ( + T2 336 )  ( + T5 255 ) ) ( <= ( + T5 259 )( + T2 264 ) ) )
(or ( <= ( + T2 430 )  ( + T5 259 ) ) ( <= ( + T5 316 )( + T2 336 ) ) )
(or ( <= ( + T2 512 )  ( + T5 316 ) ) ( <= ( + T5 390 )( + T2 430 ) ) )
(or ( <= ( + T2 560 )  ( + T5 390 ) ) ( <= ( + T5 475 )( + T2 512 ) ) )
(or ( <= ( + T2 53 ) T6 ) ( <= ( + T6 56 ) T2 ) )
(or ( <= ( + T2 144 )  ( + T6 56 ) ) ( <= ( + T6 118 )( + T2 53 ) ) )
(or ( <= ( + T2 148 )  ( + T6 118 ) ) ( <= ( + T6 202 )( + T2 144 ) ) )
(or ( <= ( + T2 176 )  ( + T6 202 ) ) ( <= ( + T6 235 )( + T2 148 ) ) )
(or ( <= ( + T2 256 )  ( + T6 235 ) ) ( <= ( + T6 334 )( + T2 176 ) ) )
(or ( <= ( + T2 264 )  ( + T6 334 ) ) ( <= ( + T6 414 )( + T2 256 ) ) )
(or ( <= ( + T2 336 )  ( + T6 414 ) ) ( <= ( + T6 504 )( + T2 264 ) ) )
(or ( <= ( + T2 430 )  ( + T6 504 ) ) ( <= ( + T6 540 )( + T2 336 ) ) )
(or ( <= ( + T2 512 )  ( + T6 540 ) ) ( <= ( + T6 623 )( + T2 430 ) ) )
(or ( <= ( + T2 560 )  ( + T6 623 ) ) ( <= ( + T6 679 )( + T2 512 ) ) )
(or ( <= ( + T2 53 ) T7 ) ( <= ( + T7 56 ) T2 ) )
(or ( <= ( + T2 144 )  ( + T7 56 ) ) ( <= ( + T7 112 )( + T2 53 ) ) )
(or ( <= ( + T2 148 )  ( + T7 112 ) ) ( <= ( + T7 124 )( + T2 144 ) ) )
(or ( <= ( + T2 176 )  ( + T7 124 ) ) ( <= ( + T7 196 )( + T2 148 ) ) )
(or ( <= ( + T2 256 )  ( + T7 196 ) ) ( <= ( + T7 230 )( + T2 176 ) ) )
(or ( <= ( + T2 264 )  ( + T7 230 ) ) ( <= ( + T7 258 )( + T2 256 ) ) )
(or ( <= ( + T2 336 )  ( + T7 258 ) ) ( <= ( + T7 344 )( + T2 264 ) ) )
(or ( <= ( + T2 430 )  ( + T7 344 ) ) ( <= ( + T7 403 )( + T2 336 ) ) )
(or ( <= ( + T2 512 )  ( + T7 403 ) ) ( <= ( + T7 440 )( + T2 430 ) ) )
(or ( <= ( + T2 560 )  ( + T7 440 ) ) ( <= ( + T7 531 )( + T2 512 ) ) )
(or ( <= ( + T2 53 ) T8 ) ( <= ( + T8 66 ) T2 ) )
(or ( <= ( + T2 144 )  ( + T8 66 ) ) ( <= ( + T8 97 )( + T2 53 ) ) )
(or ( <= ( + T2 148 )  ( + T8 97 ) ) ( <= ( + T8 145 )( + T2 144 ) ) )
(or ( <= ( + T2 176 )  ( + T8 145 ) ) ( <= ( + T8 159 )( + T2 148 ) ) )
(or ( <= ( + T2 256 )  ( + T8 159 ) ) ( <= ( + T8 186 )( + T2 176 ) ) )
(or ( <= ( + T2 264 )  ( + T8 186 ) ) ( <= ( + T8 219 )( + T2 256 ) ) )
(or ( <= ( + T2 336 )  ( + T8 219 ) ) ( <= ( + T8 261 )( + T2 264 ) ) )
(or ( <= ( + T2 430 )  ( + T8 261 ) ) ( <= ( + T8 292 )( + T2 336 ) ) )
(or ( <= ( + T2 512 )  ( + T8 292 ) ) ( <= ( + T8 333 )( + T2 430 ) ) )
(or ( <= ( + T2 560 )  ( + T8 333 ) ) ( <= ( + T8 348 )( + T2 512 ) ) )
(or ( <= ( + T3 89 ) T4 ) ( <= ( + T4 74 ) T3 ) )
(or ( <= ( + T3 188 )  ( + T4 74 ) ) ( <= ( + T4 79 )( + T3 89 ) ) )
(or ( <= ( + T3 265 )  ( + T4 79 ) ) ( <= ( + T4 144 )( + T3 188 ) ) )
(or ( <= ( + T3 303 )  ( + T4 144 ) ) ( <= ( + T4 171 )( + T3 265 ) ) )
(or ( <= ( + T3 348 )  ( + T4 171 ) ) ( <= ( + T4 188 )( + T3 303 ) ) )
(or ( <= ( + T3 354 )  ( + T4 188 ) ) ( <= ( + T4 202 )( + T3 348 ) ) )
(or ( <= ( + T3 440 )  ( + T4 202 ) ) ( <= ( + T4 276 )( + T3 354 ) ) )
(or ( <= ( + T3 444 )  ( + T4 276 ) ) ( <= ( + T4 334 )( + T3 440 ) ) )
(or ( <= ( + T3 510 )  ( + T4 334 ) ) ( <= ( + T4 388 )( + T3 444 ) ) )
(or ( <= ( + T3 530 )  ( + T4 388 ) ) ( <= ( + T4 395 )( + T3 510 ) ) )
(or ( <= ( + T3 89 ) T5 ) ( <= ( + T5 42 ) T3 ) )
(or ( <= ( + T3 188 )  ( + T5 42 ) ) ( <= ( + T5 48 )( + T3 89 ) ) )
(or ( <= ( + T3 265 )  ( + T5 48 ) ) ( <= ( + T5 97 )( + T3 188 ) ) )
(or ( <= ( + T3 303 )  ( + T5 97 ) ) ( <= ( + T5 142 )( + T3 265 ) ) )
(or ( <= ( + T3 348 )  ( + T5 142 ) ) ( <= ( + T5 227 )( + T3 303 ) ) )
(or ( <= ( + T3 354 )  ( + T5 227 ) ) ( <= ( + T5 255 )( + T3 348 ) ) )
(or ( <= ( + T3 440 )  ( + T5 255 ) ) ( <= ( + T5 259 )( + T3 354 ) ) )
(or ( <= ( + T3 444 )  ( + T5 259 ) ) ( <= ( + T5 316 )( + T3 440 ) ) )
(or ( <= ( + T3 510 )  ( + T5 316 ) ) ( <= ( + T5 390 )( + T3 444 ) ) )
(or ( <= ( + T3 530 )  ( + T5 390 ) ) ( <= ( + T5 475 )( + T3 510 ) ) )
(or ( <= ( + T3 89 ) T6 ) ( <= ( + T6 56 ) T3 ) )
(or ( <= ( + T3 188 )  ( + T6 56 ) ) ( <= ( + T6 118 )( + T3 89 ) ) )
(or ( <= ( + T3 265 )  ( + T6 118 ) ) ( <= ( + T6 202 )( + T3 188 ) ) )
(or ( <= ( + T3 303 )  ( + T6 202 ) ) ( <= ( + T6 235 )( + T3 265 ) ) )
(or ( <= ( + T3 348 )  ( + T6 235 ) ) ( <= ( + T6 334 )( + T3 303 ) ) )
(or ( <= ( + T3 354 )  ( + T6 334 ) ) ( <= ( + T6 414 )( + T3 348 ) ) )
(or ( <= ( + T3 440 )  ( + T6 414 ) ) ( <= ( + T6 504 )( + T3 354 ) ) )
(or ( <= ( + T3 444 )  ( + T6 504 ) ) ( <= ( + T6 540 )( + T3 440 ) ) )
(or ( <= ( + T3 510 )  ( + T6 540 ) ) ( <= ( + T6 623 )( + T3 444 ) ) )
(or ( <= ( + T3 530 )  ( + T6 623 ) ) ( <= ( + T6 679 )( + T3 510 ) ) )
(or ( <= ( + T3 89 ) T7 ) ( <= ( + T7 56 ) T3 ) )
(or ( <= ( + T3 188 )  ( + T7 56 ) ) ( <= ( + T7 112 )( + T3 89 ) ) )
(or ( <= ( + T3 265 )  ( + T7 112 ) ) ( <= ( + T7 124 )( + T3 188 ) ) )
(or ( <= ( + T3 303 )  ( + T7 124 ) ) ( <= ( + T7 196 )( + T3 265 ) ) )
(or ( <= ( + T3 348 )  ( + T7 196 ) ) ( <= ( + T7 230 )( + T3 303 ) ) )
(or ( <= ( + T3 354 )  ( + T7 230 ) ) ( <= ( + T7 258 )( + T3 348 ) ) )
(or ( <= ( + T3 440 )  ( + T7 258 ) ) ( <= ( + T7 344 )( + T3 354 ) ) )
(or ( <= ( + T3 444 )  ( + T7 344 ) ) ( <= ( + T7 403 )( + T3 440 ) ) )
(or ( <= ( + T3 510 )  ( + T7 403 ) ) ( <= ( + T7 440 )( + T3 444 ) ) )
(or ( <= ( + T3 530 )  ( + T7 440 ) ) ( <= ( + T7 531 )( + T3 510 ) ) )
(or ( <= ( + T3 89 ) T8 ) ( <= ( + T8 66 ) T3 ) )
(or ( <= ( + T3 188 )  ( + T8 66 ) ) ( <= ( + T8 97 )( + T3 89 ) ) )
(or ( <= ( + T3 265 )  ( + T8 97 ) ) ( <= ( + T8 145 )( + T3 188 ) ) )
(or ( <= ( + T3 303 )  ( + T8 145 ) ) ( <= ( + T8 159 )( + T3 265 ) ) )
(or ( <= ( + T3 348 )  ( + T8 159 ) ) ( <= ( + T8 186 )( + T3 303 ) ) )
(or ( <= ( + T3 354 )  ( + T8 186 ) ) ( <= ( + T8 219 )( + T3 348 ) ) )
(or ( <= ( + T3 440 )  ( + T8 219 ) ) ( <= ( + T8 261 )( + T3 354 ) ) )
(or ( <= ( + T3 444 )  ( + T8 261 ) ) ( <= ( + T8 292 )( + T3 440 ) ) )
(or ( <= ( + T3 510 )  ( + T8 292 ) ) ( <= ( + T8 333 )( + T3 444 ) ) )
(or ( <= ( + T3 530 )  ( + T8 333 ) ) ( <= ( + T8 348 )( + T3 510 ) ) )
(or ( <= ( + T4 74 ) T5 ) ( <= ( + T5 42 ) T4 ) )
(or ( <= ( + T4 79 )  ( + T5 42 ) ) ( <= ( + T5 48 )( + T4 74 ) ) )
(or ( <= ( + T4 144 )  ( + T5 48 ) ) ( <= ( + T5 97 )( + T4 79 ) ) )
(or ( <= ( + T4 171 )  ( + T5 97 ) ) ( <= ( + T5 142 )( + T4 144 ) ) )
(or ( <= ( + T4 188 )  ( + T5 142 ) ) ( <= ( + T5 227 )( + T4 171 ) ) )
(or ( <= ( + T4 202 )  ( + T5 227 ) ) ( <= ( + T5 255 )( + T4 188 ) ) )
(or ( <= ( + T4 276 )  ( + T5 255 ) ) ( <= ( + T5 259 )( + T4 202 ) ) )
(or ( <= ( + T4 334 )  ( + T5 259 ) ) ( <= ( + T5 316 )( + T4 276 ) ) )
(or ( <= ( + T4 388 )  ( + T5 316 ) ) ( <= ( + T5 390 )( + T4 334 ) ) )
(or ( <= ( + T4 395 )  ( + T5 390 ) ) ( <= ( + T5 475 )( + T4 388 ) ) )
(or ( <= ( + T4 74 ) T6 ) ( <= ( + T6 56 ) T4 ) )
(or ( <= ( + T4 79 )  ( + T6 56 ) ) ( <= ( + T6 118 )( + T4 74 ) ) )
(or ( <= ( + T4 144 )  ( + T6 118 ) ) ( <= ( + T6 202 )( + T4 79 ) ) )
(or ( <= ( + T4 171 )  ( + T6 202 ) ) ( <= ( + T6 235 )( + T4 144 ) ) )
(or ( <= ( + T4 188 )  ( + T6 235 ) ) ( <= ( + T6 334 )( + T4 171 ) ) )
(or ( <= ( + T4 202 )  ( + T6 334 ) ) ( <= ( + T6 414 )( + T4 188 ) ) )
(or ( <= ( + T4 276 )  ( + T6 414 ) ) ( <= ( + T6 504 )( + T4 202 ) ) )
(or ( <= ( + T4 334 )  ( + T6 504 ) ) ( <= ( + T6 540 )( + T4 276 ) ) )
(or ( <= ( + T4 388 )  ( + T6 540 ) ) ( <= ( + T6 623 )( + T4 334 ) ) )
(or ( <= ( + T4 395 )  ( + T6 623 ) ) ( <= ( + T6 679 )( + T4 388 ) ) )
(or ( <= ( + T4 74 ) T7 ) ( <= ( + T7 56 ) T4 ) )
(or ( <= ( + T4 79 )  ( + T7 56 ) ) ( <= ( + T7 112 )( + T4 74 ) ) )
(or ( <= ( + T4 144 )  ( + T7 112 ) ) ( <= ( + T7 124 )( + T4 79 ) ) )
(or ( <= ( + T4 171 )  ( + T7 124 ) ) ( <= ( + T7 196 )( + T4 144 ) ) )
(or ( <= ( + T4 188 )  ( + T7 196 ) ) ( <= ( + T7 230 )( + T4 171 ) ) )
(or ( <= ( + T4 202 )  ( + T7 230 ) ) ( <= ( + T7 258 )( + T4 188 ) ) )
(or ( <= ( + T4 276 )  ( + T7 258 ) ) ( <= ( + T7 344 )( + T4 202 ) ) )
(or ( <= ( + T4 334 )  ( + T7 344 ) ) ( <= ( + T7 403 )( + T4 276 ) ) )
(or ( <= ( + T4 388 )  ( + T7 403 ) ) ( <= ( + T7 440 )( + T4 334 ) ) )
(or ( <= ( + T4 395 )  ( + T7 440 ) ) ( <= ( + T7 531 )( + T4 388 ) ) )
(or ( <= ( + T4 74 ) T8 ) ( <= ( + T8 66 ) T4 ) )
(or ( <= ( + T4 79 )  ( + T8 66 ) ) ( <= ( + T8 97 )( + T4 74 ) ) )
(or ( <= ( + T4 144 )  ( + T8 97 ) ) ( <= ( + T8 145 )( + T4 79 ) ) )
(or ( <= ( + T4 171 )  ( + T8 145 ) ) ( <= ( + T8 159 )( + T4 144 ) ) )
(or ( <= ( + T4 188 )  ( + T8 159 ) ) ( <= ( + T8 186 )( + T4 171 ) ) )
(or ( <= ( + T4 202 )  ( + T8 186 ) ) ( <= ( + T8 219 )( + T4 188 ) ) )
(or ( <= ( + T4 276 )  ( + T8 219 ) ) ( <= ( + T8 261 )( + T4 202 ) ) )
(or ( <= ( + T4 334 )  ( + T8 261 ) ) ( <= ( + T8 292 )( + T4 276 ) ) )
(or ( <= ( + T4 388 )  ( + T8 292 ) ) ( <= ( + T8 333 )( + T4 334 ) ) )
(or ( <= ( + T4 395 )  ( + T8 333 ) ) ( <= ( + T8 348 )( + T4 388 ) ) )
(or ( <= ( + T5 42 ) T6 ) ( <= ( + T6 56 ) T5 ) )
(or ( <= ( + T5 48 )  ( + T6 56 ) ) ( <= ( + T6 118 )( + T5 42 ) ) )
(or ( <= ( + T5 97 )  ( + T6 118 ) ) ( <= ( + T6 202 )( + T5 48 ) ) )
(or ( <= ( + T5 142 )  ( + T6 202 ) ) ( <= ( + T6 235 )( + T5 97 ) ) )
(or ( <= ( + T5 227 )  ( + T6 235 ) ) ( <= ( + T6 334 )( + T5 142 ) ) )
(or ( <= ( + T5 255 )  ( + T6 334 ) ) ( <= ( + T6 414 )( + T5 227 ) ) )
(or ( <= ( + T5 259 )  ( + T6 414 ) ) ( <= ( + T6 504 )( + T5 255 ) ) )
(or ( <= ( + T5 316 )  ( + T6 504 ) ) ( <= ( + T6 540 )( + T5 259 ) ) )
(or ( <= ( + T5 390 )  ( + T6 540 ) ) ( <= ( + T6 623 )( + T5 316 ) ) )
(or ( <= ( + T5 475 )  ( + T6 623 ) ) ( <= ( + T6 679 )( + T5 390 ) ) )
(or ( <= ( + T5 42 ) T7 ) ( <= ( + T7 56 ) T5 ) )
(or ( <= ( + T5 48 )  ( + T7 56 ) ) ( <= ( + T7 112 )( + T5 42 ) ) )
(or ( <= ( + T5 97 )  ( + T7 112 ) ) ( <= ( + T7 124 )( + T5 48 ) ) )
(or ( <= ( + T5 142 )  ( + T7 124 ) ) ( <= ( + T7 196 )( + T5 97 ) ) )
(or ( <= ( + T5 227 )  ( + T7 196 ) ) ( <= ( + T7 230 )( + T5 142 ) ) )
(or ( <= ( + T5 255 )  ( + T7 230 ) ) ( <= ( + T7 258 )( + T5 227 ) ) )
(or ( <= ( + T5 259 )  ( + T7 258 ) ) ( <= ( + T7 344 )( + T5 255 ) ) )
(or ( <= ( + T5 316 )  ( + T7 344 ) ) ( <= ( + T7 403 )( + T5 259 ) ) )
(or ( <= ( + T5 390 )  ( + T7 403 ) ) ( <= ( + T7 440 )( + T5 316 ) ) )
(or ( <= ( + T5 475 )  ( + T7 440 ) ) ( <= ( + T7 531 )( + T5 390 ) ) )
(or ( <= ( + T5 42 ) T8 ) ( <= ( + T8 66 ) T5 ) )
(or ( <= ( + T5 48 )  ( + T8 66 ) ) ( <= ( + T8 97 )( + T5 42 ) ) )
(or ( <= ( + T5 97 )  ( + T8 97 ) ) ( <= ( + T8 145 )( + T5 48 ) ) )
(or ( <= ( + T5 142 )  ( + T8 145 ) ) ( <= ( + T8 159 )( + T5 97 ) ) )
(or ( <= ( + T5 227 )  ( + T8 159 ) ) ( <= ( + T8 186 )( + T5 142 ) ) )
(or ( <= ( + T5 255 )  ( + T8 186 ) ) ( <= ( + T8 219 )( + T5 227 ) ) )
(or ( <= ( + T5 259 )  ( + T8 219 ) ) ( <= ( + T8 261 )( + T5 255 ) ) )
(or ( <= ( + T5 316 )  ( + T8 261 ) ) ( <= ( + T8 292 )( + T5 259 ) ) )
(or ( <= ( + T5 390 )  ( + T8 292 ) ) ( <= ( + T8 333 )( + T5 316 ) ) )
(or ( <= ( + T5 475 )  ( + T8 333 ) ) ( <= ( + T8 348 )( + T5 390 ) ) )
(or ( <= ( + T6 56 ) T7 ) ( <= ( + T7 56 ) T6 ) )
(or ( <= ( + T6 118 )  ( + T7 56 ) ) ( <= ( + T7 112 )( + T6 56 ) ) )
(or ( <= ( + T6 202 )  ( + T7 112 ) ) ( <= ( + T7 124 )( + T6 118 ) ) )
(or ( <= ( + T6 235 )  ( + T7 124 ) ) ( <= ( + T7 196 )( + T6 202 ) ) )
(or ( <= ( + T6 334 )  ( + T7 196 ) ) ( <= ( + T7 230 )( + T6 235 ) ) )
(or ( <= ( + T6 414 )  ( + T7 230 ) ) ( <= ( + T7 258 )( + T6 334 ) ) )
(or ( <= ( + T6 504 )  ( + T7 258 ) ) ( <= ( + T7 344 )( + T6 414 ) ) )
(or ( <= ( + T6 540 )  ( + T7 344 ) ) ( <= ( + T7 403 )( + T6 504 ) ) )
(or ( <= ( + T6 623 )  ( + T7 403 ) ) ( <= ( + T7 440 )( + T6 540 ) ) )
(or ( <= ( + T6 679 )  ( + T7 440 ) ) ( <= ( + T7 531 )( + T6 623 ) ) )
(or ( <= ( + T6 56 ) T8 ) ( <= ( + T8 66 ) T6 ) )
(or ( <= ( + T6 118 )  ( + T8 66 ) ) ( <= ( + T8 97 )( + T6 56 ) ) )
(or ( <= ( + T6 202 )  ( + T8 97 ) ) ( <= ( + T8 145 )( + T6 118 ) ) )
(or ( <= ( + T6 235 )  ( + T8 145 ) ) ( <= ( + T8 159 )( + T6 202 ) ) )
(or ( <= ( + T6 334 )  ( + T8 159 ) ) ( <= ( + T8 186 )( + T6 235 ) ) )
(or ( <= ( + T6 414 )  ( + T8 186 ) ) ( <= ( + T8 219 )( + T6 334 ) ) )
(or ( <= ( + T6 504 )  ( + T8 219 ) ) ( <= ( + T8 261 )( + T6 414 ) ) )
(or ( <= ( + T6 540 )  ( + T8 261 ) ) ( <= ( + T8 292 )( + T6 504 ) ) )
(or ( <= ( + T6 623 )  ( + T8 292 ) ) ( <= ( + T8 333 )( + T6 540 ) ) )
(or ( <= ( + T6 679 )  ( + T8 333 ) ) ( <= ( + T8 348 )( + T6 623 ) ) )
(or ( <= ( + T7 56 ) T8 ) ( <= ( + T8 66 ) T7 ) )
(or ( <= ( + T7 112 )  ( + T8 66 ) ) ( <= ( + T8 97 )( + T7 56 ) ) )
(or ( <= ( + T7 124 )  ( + T8 97 ) ) ( <= ( + T8 145 )( + T7 112 ) ) )
(or ( <= ( + T7 196 )  ( + T8 145 ) ) ( <= ( + T8 159 )( + T7 124 ) ) )
(or ( <= ( + T7 230 )  ( + T8 159 ) ) ( <= ( + T8 186 )( + T7 196 ) ) )
(or ( <= ( + T7 258 )  ( + T8 186 ) ) ( <= ( + T8 219 )( + T7 230 ) ) )
(or ( <= ( + T7 344 )  ( + T8 219 ) ) ( <= ( + T8 261 )( + T7 258 ) ) )
(or ( <= ( + T7 403 )  ( + T8 261 ) ) ( <= ( + T8 292 )( + T7 344 ) ) )
(or ( <= ( + T7 440 )  ( + T8 292 ) ) ( <= ( + T8 333 )( + T7 403 ) ) )
(or ( <= ( + T7 531 )  ( + T8 333 ) ) ( <= ( + T8 348 )( + T7 440 ) ) )
( <= ( + T1 642 ) Z)
( <= ( + T2 560 ) Z)
( <= ( + T3 530 ) Z)
( <= ( + T4 395 ) Z)
( <= ( + T5 475 ) Z)
( <= ( + T6 679 ) Z)
( <= ( + T7 531 ) Z)
( <= ( + T8 348 ) Z)
( >= T1 0 )
( >= T2 0 )
( >= T3 0 )
( >= T4 0 )
( >= T5 0 )
( >= T6 0 )
( >= T7 0 )
( >= T8 0 )
) )
)(=> $phi $goal))))